0 1660
1 1660
2 1648
3 1598
4 1517
5 1480
6 1438
7 1367
8 1367
9 1367
10 1305
11 1305
12 1305
13 1257
14 1257
15 1240
16 1240
17 1220
18 1220
19 1208
20 1208
21 1208
22 1181
23 1181
24 1151
25 1151
26 1148
27 1119
28 1119
29 1119
30 1087
31 1078
32 1076
33 1076
34 1056
35 1043
36 1030
37 1030
38 1030
39 1029
40 1022
41 1015
42 1015
43 1015
44 1003
45 974
46 974
47 974
48 974
49 974
50 974
51 964
52 961
53 961
54 958
55 958
56 958
57 958
58 958
59 954
60 951
61 951
62 951
63 944
64 944
65 944
66 944
67 944
68 940
69 930
70 930
71 930
72 930
73 930
74 930
75 930
76 927
77 927
78 920
79 919
80 919
81 907
82 904
83 899
84 899
85 899
86 899
87 899
88 899
89 899
90 899
91 899
92 899
93 895
94 895
95 895
96 895
97 894
98 894
99 894
100 893
101 893
102 893
103 893
104 893
105 893
106 893
107 893
108 893
109 893
110 893
111 893
112 893
113 893
114 893
115 893
116 893
117 893
118 893
119 893
120 893
121 893
122 893
123 893
124 893
125 893
126 893
127 893
128 893
129 893
130 893
131 893
132 893
133 893
134 893
135 893
136 893
137 893
138 893
139 893
140 893
141 893
142 893
143 893
144 893
145 893
146 893
147 893
148 893
149 893
150 893
151 893
152 893
153 893
154 893
155 893
156 893
157 893
158 893
159 893
160 893
161 893
162 893
163 893
164 893
165 893
166 893
167 893
168 893
169 893
170 893
171 893
172 893
173 893
174 893
175 893
176 893
177 893
178 893
179 893
180 893
181 893
182 893
183 893
184 893
185 893
186 893
187 893
188 893
189 893
190 893
191 893
192 893
193 893
194 893
195 893
196 893
197 893
198 893
199 893
200 893
201 893
202 893
203 893
204 893
205 893
206 893
207 893
208 893
209 893
210 893
211 893
212 893
213 893
214 893
215 893
216 893
217 893
218 893
219 893
220 893
221 893
222 893
223 893
224 893
225 893
226 893
227 893
228 893
229 893
230 893
231 893
232 893
233 893
234 893
235 893
236 893
237 893
238 893
239 893
240 893
241 893
242 893
243 893
244 893
245 893
246 893
247 893
248 893
249 893
250 893
251 893
252 893
253 893
254 893
255 893
256 893
257 893
258 893
259 893
260 893
261 893
262 893
263 893
264 893
265 893
266 893
267 893
268 893
269 893
270 893
271 893
272 893
273 893
274 893
275 893
276 893
277 893
278 893
279 893
280 893
281 893
282 893
283 893
284 893
285 893
286 893
287 893
288 893
289 893
290 893
291 893
292 893
293 893
294 893
295 893
296 893
297 893
298 893
299 893
300 893
301 893
302 893
303 893
304 893
305 893
306 893
307 893
308 893
309 893
310 893
311 893
312 893
313 893
314 893
315 893
316 893
317 893
318 893
319 893
320 893
321 893
322 893
323 893
324 893
325 893
326 893
327 893
328 893
329 893
330 893
331 893
332 893
333 893
334 893
335 893
336 893
337 893
338 893
339 893
340 893
341 893
342 893
343 893
344 893
345 893
346 893
347 893
348 893
349 893
350 893
351 893
352 893
353 893
354 893
355 893
356 893
357 893
358 893
359 893
360 893
361 893
362 893
363 893
364 893
365 893
366 893
367 893
368 893
369 893
370 893
371 893
372 893
373 893
374 893
375 893
376 893
377 893
378 893
379 893
380 893
381 893
382 893
383 893
384 893
385 893
386 893
387 893
388 893
389 893
390 893
391 893
392 893
393 893
394 893
395 893
396 893
397 893
398 893
399 893
400 893
401 893
402 893
403 893
404 893
405 893
406 893
407 893
408 893
409 893
410 893
411 893
412 893
413 893
414 893
415 893
416 893
417 893
418 893
419 893
420 893
421 893
422 893
423 893
424 893
425 893
426 893
427 893
428 893
429 893
430 893
431 893
432 893
433 893
434 893
435 893
436 893
437 893
438 893
439 893
440 893
441 893
442 893
443 893
444 893
445 893
446 893
447 893
448 893
449 893
450 893
451 893
452 893
453 893
454 893
455 893
456 893
457 893
458 893
459 893
460 893
461 893
462 893
463 893
464 893
465 893
466 893
467 893
468 893
469 893
470 893
471 893
472 893
473 893
474 893
475 893
476 893
477 893
478 893
479 893
480 893
481 893
482 893
483 893
484 893
485 893
486 893
487 893
488 893
489 893
490 893
491 893
492 893
493 893
494 893
495 893
496 893
497 893
498 893
499 893
500 893
501 893
502 893
503 893
504 893
505 893
506 893
507 893
508 893
509 893
510 893
511 893
512 893
513 893
514 893
515 893
516 893
517 893
518 893
519 893
520 893
521 893
522 893
523 893
524 893
525 893
526 893
527 893
528 893
529 893
530 893
531 893
532 893
533 893
534 893
535 893
536 893
537 893
538 893
539 893
540 893
541 893
542 893
543 893
544 893
545 893
546 893
547 893
548 893
549 893
550 893
551 893
552 893
553 893
554 893
555 893
556 893
557 893
558 893
559 893
560 893
561 893
562 893
563 893
564 893
565 893
566 893
567 893
568 893
569 893
570 893
571 893
572 893
573 893
574 893
575 893
576 893
577 893
578 893
579 893
580 893
581 893
582 893
583 893
584 893
585 893
586 893
587 893
588 893
589 893
590 893
591 893
592 893
593 893
594 893
595 893
596 893
597 893
598 893
599 893
600 893
601 893
602 893
603 893
604 893
605 893
606 893
607 893
608 893
609 893
610 893
611 893
612 893
613 893
614 893
615 893
616 893
617 893
618 893
619 893
620 893
621 893
622 893
623 893
624 893
625 893
626 893
627 893
628 893
629 893
630 893
631 893
632 893
633 893
634 893
635 893
636 893
637 893
638 893
639 893
640 893
641 893
642 893
643 893
644 893
645 893
646 893
647 893
648 893
649 893
650 893
651 893
652 893
653 893
654 893
655 893
656 893
657 893
658 893
659 893
660 893
661 893
662 893
663 893
664 893
665 893
666 893
667 893
668 893
669 893
670 893
671 893
672 893
673 893
674 893
675 893
676 893
677 893
678 893
679 893
680 893
681 893
682 893
683 893
684 893
685 893
686 893
687 893
688 893
689 893
690 893
691 893
692 893
693 893
694 893
695 893
696 893
697 893
698 893
699 893
700 893
701 893
702 893
703 893
704 893
705 893
706 893
707 893
708 893
709 893
710 893
711 893
712 893
713 893
714 893
715 893
716 893
717 893
718 893
719 893
720 893
721 893
722 893
723 893
724 893
725 893
726 893
727 893
728 893
729 893
730 893
731 893
732 893
733 893
734 893
735 893
736 893
737 893
738 893
739 893
740 893
741 893
742 893
743 893
744 893
745 893
746 893
747 893
748 893
749 893
750 893
751 893
752 893
753 893
754 893
755 893
756 893
757 893
758 893
759 893
760 893
761 893
762 893
763 893
764 893
765 893
766 893
767 893
768 893
769 893
770 893
771 893
772 893
773 893
774 893
775 893
776 893
777 893
778 893
779 893
780 893
781 893
782 893
783 893
784 893
785 893
786 893
787 893
788 893
789 893
790 893
791 893
792 893
793 893
794 893
795 893
796 893
797 893
798 893
799 893
800 893
801 893
802 893
803 893
804 893
805 893
806 893
807 893
808 893
809 893
810 893
811 893
812 893
813 893
814 893
815 893
816 893
817 893
818 893
819 893
820 893
821 893
822 893
823 893
824 893
825 893
826 893
827 893
828 893
829 893
830 893
831 893
832 893
833 893
834 893
835 893
836 893
837 893
838 893
839 893
840 893
841 893
842 893
843 893
844 893
845 893
846 893
847 893
848 893
849 893
850 893
851 893
852 893
853 893
854 893
855 893
856 893
857 893
858 893
859 893
860 893
861 893
862 893
863 893
864 893
865 893
866 893
867 893
868 893
869 893
870 893
871 893
872 893
873 893
874 893
875 893
876 893
877 893
878 893
879 893
880 893
881 893
882 893
883 893
884 893
885 893
886 893
887 893
888 893
889 893
890 893
891 893
892 893
893 893
894 893
895 893
896 893
897 893
898 893
899 893
900 893
901 893
902 893
903 893
904 893
905 893
906 893
907 893
908 893
909 893
910 893
911 893
912 893
913 893
914 893
915 893
916 893
917 893
918 893
919 893
920 893
921 893
922 893
923 893
924 893
925 893
926 893
927 893
928 893
929 893
930 893
931 893
932 893
933 893
934 893
935 893
936 893
937 893
938 893
939 893
940 893
941 893
942 893
943 893
944 893
945 893
946 893
947 893
948 893
949 893
950 893
951 893
952 893
953 893
954 893
955 893
956 893
957 893
958 893
959 893
960 893
961 893
962 893
963 893
964 893
965 893
966 893
967 893
968 893
969 893
970 893
971 893
972 893
973 893
974 893
975 893
976 893
977 893
978 893
979 893
980 893
981 893
982 893
983 893
984 893
985 893
986 893
987 893
988 893
989 893
990 893
991 893
992 893
993 893
994 893
995 893
996 893
997 893
998 893
999 893
Best: [[25,15,19,29,7],
       [27,8,14,18,20,32,22],
       [31,17,2,13],
       [28,30,9,12,5,24,3,4],
       [21,6,26,11,16,10,23]], fitness: 893
